 $contrl scftyp=rhf mplevl=0 runtyp=energy maxit=50 $end
 $system mwords=55 timlim=99999.0   $end
 $basis  gbasis=N31 NGAUSS=6  NDFUNC=1 NPFUNC=1  $end
 $SCF DIRSCF=.f. soscf=.f.  $END
 $STATPT NSTEP=200 opttol=0.0001 $END
 $data
 LAMMPS Water Test
 C1
 O1          8.0   1.0    0.0    0.0
 H2          1.0   0.0    0.0    0.0
 H3          1.0   2.0    0.0    0.0
 O4          8.0   1.0    1.0    0.0
 H5          1.0   0.0    1.0    0.0
 H6          1.0   2.0    1.0    0.0
 O7          8.0   1.0    0.0    1.0
 H8          1.0   0.0    0.0    1.0
 H9          1.0   2.0    0.0    1.0
 O10         8.0   1.0    1.0    1.0
 H11         1.0   0.0    1.0    1.0
 H12         1.0   2.0    1.0    1.0
 O13         8.0   1.0    2.0    0.0
 H14         1.0   0.0    2.0    0.0
 H15         1.0   2.0    2.0    0.0
 O16         8.0   1.0    2.0    1.0
 H17         1.0   0.0    2.0    1.0
 H18         1.0   2.0    2.0    1.0
 O19         8.0   1.0    2.0    2.0
 H20         1.0   0.0    2.0    2.0
 H21         1.0   2.0    2.0    2.0
 O22         8.0   1.0    3.0    0.0
 H23         1.0   0.0    3.0    0.0
 H24         1.0   2.0    3.0    0.0
 $END